job_count = 22 ;
duration = [|6, 8|5, 4|7, 3|11, 1|6, 7|10, 8|9, 7|5, 2|17, 4|6, 1|6, 3|10, 5|7, 3|15, 7|8, 2|10, 4|14, 1|8, 1|3, 3|10, 5|11, 8|19, 8|] ;
machine_count = 2 ;
cost = [|10, 31|13, 21|19, 21|12, 21|17, 37|18, 33|17, 25|11, 38|16, 32|10, 35|11, 34|17, 37|12, 30|12, 29|18, 30|10, 29|10, 22|14, 22|17, 26|11, 29|19, 31|14, 38|] ;
deadline = [55, 55, 55, 55, 55, 55, 55, 55, 55, 55, 55, 55, 55, 55, 55, 55, 55, 55, 55, 55, 55, 55] ;
release = [0, 0, 0, 0, 0, 0, 0, 0, 0, 0, 0, 0, 0, 0, 0, 0, 0, 0, 0, 0, 0, 0] ;
resource = [|5, 5|1, 1|1, 1|3, 3|3, 3|1, 1|5, 5|7, 7|7, 7|5, 5|2, 2|6, 6|7, 7|2, 2|2, 2|6, 6|1, 1|2, 2|8, 8|9, 9|2, 2|8, 8|] ;
capacities = [10, 10] ;
